<?xml version = "1.0" standalone="yes"?>
<!-- This file has been generated by DOcplex version 2.23.222  -->
<CPLEXSolution version="1.0">
 <header
   problemName="CVRP"
   objectiveValue="7604.67"
  />
 <variables>
  <variable name="x_0_5" index="4" value="1.00000"/>
  <variable name="x_0_6" index="5" value="1.00000"/>
  <variable name="x_0_7" index="6" value="1.00000"/>
  <variable name="x_0_10" index="9" value="1.00000"/>
  <variable name="x_0_12" index="11" value="1.00000"/>
  <variable name="x_1_3" index="15" value="1.00000"/>
  <variable name="x_2_0" index="26" value="1.00000"/>
  <variable name="x_3_0" index="39" value="1.00000"/>
  <variable name="x_4_9" index="60" value="1.00000"/>
  <variable name="x_5_11" index="75" value="1.00000"/>
  <variable name="x_6_4" index="82" value="1.00000"/>
  <variable name="x_7_1" index="92" value="1.00000"/>
  <variable name="x_8_0" index="104" value="1.00000"/>
  <variable name="x_9_0" index="117" value="1.00000"/>
  <variable name="x_10_13" index="142" value="1.00000"/>
  <variable name="x_11_8" index="151" value="1.00000"/>
  <variable name="x_12_2" index="158" value="1.00000"/>
  <variable name="x_13_0" index="169" value="1.00000"/>
  <variable name="u_1" index="182" value="41.00000"/>
  <variable name="u_2" index="183" value="74.00000"/>
  <variable name="u_3" index="184" value="67.00000"/>
  <variable name="u_4" index="185" value="39.00000"/>
  <variable name="u_5" index="186" value="46.00000"/>
  <variable name="u_6" index="187" value="38.00000"/>
  <variable name="u_7" index="188" value="17.00000"/>
  <variable name="u_8" index="189" value="70.00000"/>
  <variable name="u_9" index="190" value="74.00000"/>
  <variable name="u_10" index="191" value="55.00000"/>
  <variable name="u_11" index="192" value="54.00000"/>
  <variable name="u_12" index="193" value="14.00000"/>
  <variable name="u_13" index="194" value="70.00000"/>
 </variables>
</CPLEXSolution>
